NAME: ETSP
COMMENT: Generated by write_TSPLIB (R package TSP)
TYPE: TSP
DIMENSION: 1000
EDGE_WEIGHT_TYPE: EUC_2D
NODE_COORD_SECTION
1 0.000000e+00 0.000000e+00
2 2.000000e+01 0.000000e+00
3 3.000000e+01 0.000000e+00
4 4.000000e+01 0.000000e+00
5 5.000000e+01 0.000000e+00
6 6.000000e+01 0.000000e+00
7 7.000000e+01 0.000000e+00
8 9.000000e+01 0.000000e+00
9 1.000000e+02 0.000000e+00
10 1.100000e+02 0.000000e+00
11 1.200000e+02 0.000000e+00
12 1.400000e+02 0.000000e+00
13 1.600000e+02 0.000000e+00
14 1.700000e+02 0.000000e+00
15 1.800000e+02 0.000000e+00
16 1.900000e+02 0.000000e+00
17 2.000000e+02 0.000000e+00
18 2.200000e+02 0.000000e+00
19 2.300000e+02 0.000000e+00
20 2.400000e+02 0.000000e+00
21 2.500000e+02 0.000000e+00
22 2.600000e+02 0.000000e+00
23 2.800000e+02 0.000000e+00
24 1.000000e+01 1.000000e+01
25 3.000000e+01 1.000000e+01
26 4.000000e+01 1.000000e+01
27 5.000000e+01 1.000000e+01
28 6.000000e+01 1.000000e+01
29 7.000000e+01 1.000000e+01
30 8.000000e+01 1.000000e+01
31 9.000000e+01 1.000000e+01
32 1.000000e+02 1.000000e+01
33 1.100000e+02 1.000000e+01
34 1.200000e+02 1.000000e+01
35 1.300000e+02 1.000000e+01
36 1.400000e+02 1.000000e+01
37 1.600000e+02 1.000000e+01
38 1.700000e+02 1.000000e+01
39 1.800000e+02 1.000000e+01
40 2.000000e+02 1.000000e+01
41 2.200000e+02 1.000000e+01
42 2.300000e+02 1.000000e+01
43 2.500000e+02 1.000000e+01
44 2.600000e+02 1.000000e+01
45 2.800000e+02 1.000000e+01
46 1.000000e+01 2.000000e+01
47 2.000000e+01 2.000000e+01
48 5.000000e+01 2.000000e+01
49 6.000000e+01 2.000000e+01
50 9.000000e+01 2.000000e+01
51 1.100000e+02 2.000000e+01
52 1.200000e+02 2.000000e+01
53 1.300000e+02 2.000000e+01
54 1.400000e+02 2.000000e+01
55 1.500000e+02 2.000000e+01
56 1.600000e+02 2.000000e+01
57 1.700000e+02 2.000000e+01
58 2.000000e+02 2.000000e+01
59 2.100000e+02 2.000000e+01
60 2.200000e+02 2.000000e+01
61 2.300000e+02 2.000000e+01
62 2.500000e+02 2.000000e+01
63 2.600000e+02 2.000000e+01
64 2.800000e+02 2.000000e+01
65 0.000000e+00 3.000000e+01
66 1.000000e+01 3.000000e+01
67 2.000000e+01 3.000000e+01
68 3.000000e+01 3.000000e+01
69 4.000000e+01 3.000000e+01
70 6.000000e+01 3.000000e+01
71 7.000000e+01 3.000000e+01
72 8.000000e+01 3.000000e+01
73 9.000000e+01 3.000000e+01
74 1.000000e+02 3.000000e+01
75 1.100000e+02 3.000000e+01
76 1.200000e+02 3.000000e+01
77 1.300000e+02 3.000000e+01
78 1.500000e+02 3.000000e+01
79 1.600000e+02 3.000000e+01
80 1.700000e+02 3.000000e+01
81 1.900000e+02 3.000000e+01
82 2.100000e+02 3.000000e+01
83 2.300000e+02 3.000000e+01
84 2.400000e+02 3.000000e+01
85 2.500000e+02 3.000000e+01
86 2.700000e+02 3.000000e+01
87 2.800000e+02 3.000000e+01
88 1.000000e+01 4.000000e+01
89 2.000000e+01 4.000000e+01
90 3.000000e+01 4.000000e+01
91 6.000000e+01 4.000000e+01
92 8.000000e+01 4.000000e+01
93 9.000000e+01 4.000000e+01
94 1.000000e+02 4.000000e+01
95 1.100000e+02 4.000000e+01
96 1.200000e+02 4.000000e+01
97 1.300000e+02 4.000000e+01
98 1.600000e+02 4.000000e+01
99 1.700000e+02 4.000000e+01
100 1.800000e+02 4.000000e+01
101 1.900000e+02 4.000000e+01
102 2.000000e+02 4.000000e+01
103 2.100000e+02 4.000000e+01
104 2.200000e+02 4.000000e+01
105 2.300000e+02 4.000000e+01
106 2.400000e+02 4.000000e+01
107 2.600000e+02 4.000000e+01
108 2.700000e+02 4.000000e+01
109 2.800000e+02 4.000000e+01
110 0.000000e+00 5.000000e+01
111 1.000000e+01 5.000000e+01
112 2.000000e+01 5.000000e+01
113 5.000000e+01 5.000000e+01
114 6.000000e+01 5.000000e+01
115 7.000000e+01 5.000000e+01
116 8.000000e+01 5.000000e+01
117 1.200000e+02 5.000000e+01
118 1.300000e+02 5.000000e+01
119 1.400000e+02 5.000000e+01
120 1.600000e+02 5.000000e+01
121 1.700000e+02 5.000000e+01
122 1.800000e+02 5.000000e+01
123 1.900000e+02 5.000000e+01
124 2.000000e+02 5.000000e+01
125 2.100000e+02 5.000000e+01
126 2.200000e+02 5.000000e+01
127 2.300000e+02 5.000000e+01
128 2.400000e+02 5.000000e+01
129 2.600000e+02 5.000000e+01
130 2.700000e+02 5.000000e+01
131 2.800000e+02 5.000000e+01
132 0.000000e+00 6.000000e+01
133 1.000000e+01 6.000000e+01
134 2.000000e+01 6.000000e+01
135 4.000000e+01 6.000000e+01
136 5.000000e+01 6.000000e+01
137 7.000000e+01 6.000000e+01
138 8.000000e+01 6.000000e+01
139 1.200000e+02 6.000000e+01
140 1.300000e+02 6.000000e+01
141 1.400000e+02 6.000000e+01
142 1.500000e+02 6.000000e+01
143 1.700000e+02 6.000000e+01
144 1.800000e+02 6.000000e+01
145 1.900000e+02 6.000000e+01
146 2.000000e+02 6.000000e+01
147 2.100000e+02 6.000000e+01
148 2.200000e+02 6.000000e+01
149 2.300000e+02 6.000000e+01
150 2.500000e+02 6.000000e+01
151 2.600000e+02 6.000000e+01
152 2.700000e+02 6.000000e+01
153 2.800000e+02 6.000000e+01
154 0.000000e+00 7.000000e+01
155 1.000000e+01 7.000000e+01
156 2.000000e+01 7.000000e+01
157 3.000000e+01 7.000000e+01
158 5.000000e+01 7.000000e+01
159 6.000000e+01 7.000000e+01
160 7.000000e+01 7.000000e+01
161 8.000000e+01 7.000000e+01
162 1.000000e+02 7.000000e+01
163 1.100000e+02 7.000000e+01
164 1.200000e+02 7.000000e+01
165 1.300000e+02 7.000000e+01
166 1.400000e+02 7.000000e+01
167 1.500000e+02 7.000000e+01
168 1.700000e+02 7.000000e+01
169 1.900000e+02 7.000000e+01
170 2.100000e+02 7.000000e+01
171 2.200000e+02 7.000000e+01
172 2.300000e+02 7.000000e+01
173 2.400000e+02 7.000000e+01
174 2.500000e+02 7.000000e+01
175 2.700000e+02 7.000000e+01
176 0.000000e+00 8.000000e+01
177 1.000000e+01 8.000000e+01
178 4.000000e+01 8.000000e+01
179 5.000000e+01 8.000000e+01
180 8.000000e+01 8.000000e+01
181 9.000000e+01 8.000000e+01
182 1.000000e+02 8.000000e+01
183 1.100000e+02 8.000000e+01
184 1.300000e+02 8.000000e+01
185 1.800000e+02 8.000000e+01
186 1.900000e+02 8.000000e+01
187 2.000000e+02 8.000000e+01
188 2.100000e+02 8.000000e+01
189 2.200000e+02 8.000000e+01
190 2.300000e+02 8.000000e+01
191 2.400000e+02 8.000000e+01
192 2.500000e+02 8.000000e+01
193 2.700000e+02 8.000000e+01
194 2.800000e+02 8.000000e+01
195 0.000000e+00 9.000000e+01
196 1.000000e+01 9.000000e+01
197 2.000000e+01 9.000000e+01
198 3.000000e+01 9.000000e+01
199 5.000000e+01 9.000000e+01
200 6.000000e+01 9.000000e+01
201 8.000000e+01 9.000000e+01
202 9.000000e+01 9.000000e+01
203 1.000000e+02 9.000000e+01
204 1.100000e+02 9.000000e+01
205 1.200000e+02 9.000000e+01
206 1.300000e+02 9.000000e+01
207 1.400000e+02 9.000000e+01
208 1.500000e+02 9.000000e+01
209 1.600000e+02 9.000000e+01
210 1.700000e+02 9.000000e+01
211 1.800000e+02 9.000000e+01
212 1.900000e+02 9.000000e+01
213 2.100000e+02 9.000000e+01
214 2.200000e+02 9.000000e+01
215 2.300000e+02 9.000000e+01
216 2.400000e+02 9.000000e+01
217 2.500000e+02 9.000000e+01
218 2.600000e+02 9.000000e+01
219 2.700000e+02 9.000000e+01
220 2.800000e+02 9.000000e+01
221 1.000000e+01 1.000000e+02
222 3.000000e+01 1.000000e+02
223 4.000000e+01 1.000000e+02
224 5.000000e+01 1.000000e+02
225 6.000000e+01 1.000000e+02
226 8.000000e+01 1.000000e+02
227 9.000000e+01 1.000000e+02
228 1.000000e+02 1.000000e+02
229 1.100000e+02 1.000000e+02
230 1.200000e+02 1.000000e+02
231 1.300000e+02 1.000000e+02
232 1.400000e+02 1.000000e+02
233 1.500000e+02 1.000000e+02
234 1.700000e+02 1.000000e+02
235 1.800000e+02 1.000000e+02
236 1.900000e+02 1.000000e+02
237 2.000000e+02 1.000000e+02
238 2.100000e+02 1.000000e+02
239 2.300000e+02 1.000000e+02
240 2.500000e+02 1.000000e+02
241 2.600000e+02 1.000000e+02
242 2.700000e+02 1.000000e+02
243 2.800000e+02 1.000000e+02
244 0.000000e+00 1.100000e+02
245 1.000000e+01 1.100000e+02
246 2.000000e+01 1.100000e+02
247 3.000000e+01 1.100000e+02
248 4.000000e+01 1.100000e+02
249 5.000000e+01 1.100000e+02
250 6.000000e+01 1.100000e+02
251 7.000000e+01 1.100000e+02
252 9.000000e+01 1.100000e+02
253 1.000000e+02 1.100000e+02
254 1.100000e+02 1.100000e+02
255 1.200000e+02 1.100000e+02
256 1.300000e+02 1.100000e+02
257 1.400000e+02 1.100000e+02
258 1.800000e+02 1.100000e+02
259 1.900000e+02 1.100000e+02
260 2.000000e+02 1.100000e+02
261 2.100000e+02 1.100000e+02
262 2.200000e+02 1.100000e+02
263 2.300000e+02 1.100000e+02
264 2.500000e+02 1.100000e+02
265 2.600000e+02 1.100000e+02
266 2.700000e+02 1.100000e+02
267 2.800000e+02 1.100000e+02
268 0.000000e+00 1.200000e+02
269 2.000000e+01 1.200000e+02
270 3.000000e+01 1.200000e+02
271 4.000000e+01 1.200000e+02
272 5.000000e+01 1.200000e+02
273 6.000000e+01 1.200000e+02
274 1.000000e+02 1.200000e+02
275 1.100000e+02 1.200000e+02
276 1.200000e+02 1.200000e+02
277 1.300000e+02 1.200000e+02
278 1.500000e+02 1.200000e+02
279 1.800000e+02 1.200000e+02
280 1.900000e+02 1.200000e+02
281 2.100000e+02 1.200000e+02
282 2.200000e+02 1.200000e+02
283 2.300000e+02 1.200000e+02
284 2.400000e+02 1.200000e+02
285 2.800000e+02 1.200000e+02
286 0.000000e+00 1.300000e+02
287 1.000000e+01 1.300000e+02
288 2.000000e+01 1.300000e+02
289 3.000000e+01 1.300000e+02
290 4.000000e+01 1.300000e+02
291 6.000000e+01 1.300000e+02
292 7.000000e+01 1.300000e+02
293 8.000000e+01 1.300000e+02
294 1.000000e+02 1.300000e+02
295 1.100000e+02 1.300000e+02
296 1.300000e+02 1.300000e+02
297 1.400000e+02 1.300000e+02
298 1.500000e+02 1.300000e+02
299 1.600000e+02 1.300000e+02
300 1.700000e+02 1.300000e+02
301 2.000000e+02 1.300000e+02
302 2.100000e+02 1.300000e+02
303 2.200000e+02 1.300000e+02
304 2.400000e+02 1.300000e+02
305 2.600000e+02 1.300000e+02
306 2.700000e+02 1.300000e+02
307 2.800000e+02 1.300000e+02
308 1.000000e+01 1.400000e+02
309 2.000000e+01 1.400000e+02
310 3.000000e+01 1.400000e+02
311 4.000000e+01 1.400000e+02
312 6.000000e+01 1.400000e+02
313 7.000000e+01 1.400000e+02
314 8.000000e+01 1.400000e+02
315 9.000000e+01 1.400000e+02
316 1.000000e+02 1.400000e+02
317 1.100000e+02 1.400000e+02
318 1.300000e+02 1.400000e+02
319 1.400000e+02 1.400000e+02
320 1.700000e+02 1.400000e+02
321 2.100000e+02 1.400000e+02
322 2.300000e+02 1.400000e+02
323 2.400000e+02 1.400000e+02
324 2.500000e+02 1.400000e+02
325 2.700000e+02 1.400000e+02
326 2.800000e+02 1.400000e+02
327 1.000000e+01 1.500000e+02
328 2.000000e+01 1.500000e+02
329 4.000000e+01 1.500000e+02
330 5.000000e+01 1.500000e+02
331 6.000000e+01 1.500000e+02
332 7.000000e+01 1.500000e+02
333 8.000000e+01 1.500000e+02
334 1.000000e+02 1.500000e+02
335 1.100000e+02 1.500000e+02
336 1.200000e+02 1.500000e+02
337 1.300000e+02 1.500000e+02
338 1.500000e+02 1.500000e+02
339 1.700000e+02 1.500000e+02
340 1.800000e+02 1.500000e+02
341 1.900000e+02 1.500000e+02
342 2.000000e+02 1.500000e+02
343 2.200000e+02 1.500000e+02
344 2.300000e+02 1.500000e+02
345 2.400000e+02 1.500000e+02
346 2.500000e+02 1.500000e+02
347 2.800000e+02 1.500000e+02
348 0.000000e+00 1.600000e+02
349 1.000000e+01 1.600000e+02
350 2.000000e+01 1.600000e+02
351 4.000000e+01 1.600000e+02
352 5.000000e+01 1.600000e+02
353 6.000000e+01 1.600000e+02
354 9.000000e+01 1.600000e+02
355 1.000000e+02 1.600000e+02
356 1.100000e+02 1.600000e+02
357 1.200000e+02 1.600000e+02
358 1.400000e+02 1.600000e+02
359 1.500000e+02 1.600000e+02
360 1.600000e+02 1.600000e+02
361 1.700000e+02 1.600000e+02
362 1.800000e+02 1.600000e+02
363 1.900000e+02 1.600000e+02
364 2.000000e+02 1.600000e+02
365 2.100000e+02 1.600000e+02
366 2.200000e+02 1.600000e+02
367 2.300000e+02 1.600000e+02
368 2.400000e+02 1.600000e+02
369 1.000000e+01 1.700000e+02
370 2.000000e+01 1.700000e+02
371 4.000000e+01 1.700000e+02
372 5.000000e+01 1.700000e+02
373 6.000000e+01 1.700000e+02
374 8.000000e+01 1.700000e+02
375 1.000000e+02 1.700000e+02
376 1.100000e+02 1.700000e+02
377 1.200000e+02 1.700000e+02
378 1.300000e+02 1.700000e+02
379 1.400000e+02 1.700000e+02
380 1.500000e+02 1.700000e+02
381 1.600000e+02 1.700000e+02
382 1.700000e+02 1.700000e+02
383 1.800000e+02 1.700000e+02
384 1.900000e+02 1.700000e+02
385 2.000000e+02 1.700000e+02
386 2.100000e+02 1.700000e+02
387 2.200000e+02 1.700000e+02
388 2.300000e+02 1.700000e+02
389 2.400000e+02 1.700000e+02
390 2.500000e+02 1.700000e+02
391 2.600000e+02 1.700000e+02
392 2.700000e+02 1.700000e+02
393 2.800000e+02 1.700000e+02
394 0.000000e+00 1.800000e+02
395 1.000000e+01 1.800000e+02
396 3.000000e+01 1.800000e+02
397 4.000000e+01 1.800000e+02
398 6.000000e+01 1.800000e+02
399 7.000000e+01 1.800000e+02
400 8.000000e+01 1.800000e+02
401 9.000000e+01 1.800000e+02
402 1.100000e+02 1.800000e+02
403 1.200000e+02 1.800000e+02
404 1.300000e+02 1.800000e+02
405 1.400000e+02 1.800000e+02
406 1.500000e+02 1.800000e+02
407 1.700000e+02 1.800000e+02
408 1.800000e+02 1.800000e+02
409 1.900000e+02 1.800000e+02
410 2.000000e+02 1.800000e+02
411 2.100000e+02 1.800000e+02
412 2.300000e+02 1.800000e+02
413 2.400000e+02 1.800000e+02
414 2.500000e+02 1.800000e+02
415 2.600000e+02 1.800000e+02
416 2.700000e+02 1.800000e+02
417 2.800000e+02 1.800000e+02
418 0.000000e+00 1.900000e+02
419 2.000000e+01 1.900000e+02
420 3.000000e+01 1.900000e+02
421 4.000000e+01 1.900000e+02
422 5.000000e+01 1.900000e+02
423 6.000000e+01 1.900000e+02
424 7.000000e+01 1.900000e+02
425 8.000000e+01 1.900000e+02
426 9.000000e+01 1.900000e+02
427 1.000000e+02 1.900000e+02
428 1.300000e+02 1.900000e+02
429 1.500000e+02 1.900000e+02
430 1.700000e+02 1.900000e+02
431 1.900000e+02 1.900000e+02
432 2.000000e+02 1.900000e+02
433 2.100000e+02 1.900000e+02
434 2.200000e+02 1.900000e+02
435 2.400000e+02 1.900000e+02
436 2.500000e+02 1.900000e+02
437 2.700000e+02 1.900000e+02
438 0.000000e+00 2.000000e+02
439 1.000000e+01 2.000000e+02
440 2.000000e+01 2.000000e+02
441 3.000000e+01 2.000000e+02
442 4.000000e+01 2.000000e+02
443 8.000000e+01 2.000000e+02
444 9.000000e+01 2.000000e+02
445 1.000000e+02 2.000000e+02
446 1.100000e+02 2.000000e+02
447 1.400000e+02 2.000000e+02
448 1.500000e+02 2.000000e+02
449 1.600000e+02 2.000000e+02
450 1.700000e+02 2.000000e+02
451 1.800000e+02 2.000000e+02
452 1.900000e+02 2.000000e+02
453 2.000000e+02 2.000000e+02
454 2.100000e+02 2.000000e+02
455 2.200000e+02 2.000000e+02
456 2.300000e+02 2.000000e+02
457 2.400000e+02 2.000000e+02
458 2.500000e+02 2.000000e+02
459 2.600000e+02 2.000000e+02
460 2.700000e+02 2.000000e+02
461 2.800000e+02 2.000000e+02
462 0.000000e+00 2.100000e+02
463 1.000000e+01 2.100000e+02
464 2.000000e+01 2.100000e+02
465 3.000000e+01 2.100000e+02
466 5.000000e+01 2.100000e+02
467 6.000000e+01 2.100000e+02
468 7.000000e+01 2.100000e+02
469 9.000000e+01 2.100000e+02
470 1.000000e+02 2.100000e+02
471 1.200000e+02 2.100000e+02
472 1.300000e+02 2.100000e+02
473 1.400000e+02 2.100000e+02
474 1.500000e+02 2.100000e+02
475 1.600000e+02 2.100000e+02
476 1.700000e+02 2.100000e+02
477 1.800000e+02 2.100000e+02
478 1.900000e+02 2.100000e+02
479 2.200000e+02 2.100000e+02
480 2.300000e+02 2.100000e+02
481 2.500000e+02 2.100000e+02
482 2.600000e+02 2.100000e+02
483 2.700000e+02 2.100000e+02
484 2.800000e+02 2.100000e+02
485 0.000000e+00 2.200000e+02
486 1.000000e+01 2.200000e+02
487 2.000000e+01 2.200000e+02
488 3.000000e+01 2.200000e+02
489 4.000000e+01 2.200000e+02
490 5.000000e+01 2.200000e+02
491 7.000000e+01 2.200000e+02
492 8.000000e+01 2.200000e+02
493 1.200000e+02 2.200000e+02
494 1.400000e+02 2.200000e+02
495 1.500000e+02 2.200000e+02
496 1.600000e+02 2.200000e+02
497 1.700000e+02 2.200000e+02
498 1.800000e+02 2.200000e+02
499 1.900000e+02 2.200000e+02
500 2.100000e+02 2.200000e+02
501 2.300000e+02 2.200000e+02
502 2.500000e+02 2.200000e+02
503 2.600000e+02 2.200000e+02
504 2.700000e+02 2.200000e+02
505 0.000000e+00 2.300000e+02
506 1.000000e+01 2.300000e+02
507 2.000000e+01 2.300000e+02
508 3.000000e+01 2.300000e+02
509 4.000000e+01 2.300000e+02
510 5.000000e+01 2.300000e+02
511 6.000000e+01 2.300000e+02
512 8.000000e+01 2.300000e+02
513 9.000000e+01 2.300000e+02
514 1.000000e+02 2.300000e+02
515 1.200000e+02 2.300000e+02
516 1.300000e+02 2.300000e+02
517 1.400000e+02 2.300000e+02
518 1.600000e+02 2.300000e+02
519 1.700000e+02 2.300000e+02
520 1.800000e+02 2.300000e+02
521 1.900000e+02 2.300000e+02
522 2.200000e+02 2.300000e+02
523 2.300000e+02 2.300000e+02
524 2.500000e+02 2.300000e+02
525 2.700000e+02 2.300000e+02
526 2.800000e+02 2.300000e+02
527 0.000000e+00 2.400000e+02
528 1.000000e+01 2.400000e+02
529 2.000000e+01 2.400000e+02
530 3.000000e+01 2.400000e+02
531 6.000000e+01 2.400000e+02
532 7.000000e+01 2.400000e+02
533 8.000000e+01 2.400000e+02
534 9.000000e+01 2.400000e+02
535 1.000000e+02 2.400000e+02
536 1.100000e+02 2.400000e+02
537 1.200000e+02 2.400000e+02
538 1.300000e+02 2.400000e+02
539 1.500000e+02 2.400000e+02
540 1.600000e+02 2.400000e+02
541 1.700000e+02 2.400000e+02
542 1.800000e+02 2.400000e+02
543 2.000000e+02 2.400000e+02
544 2.200000e+02 2.400000e+02
545 2.300000e+02 2.400000e+02
546 2.400000e+02 2.400000e+02
547 2.500000e+02 2.400000e+02
548 2.600000e+02 2.400000e+02
549 2.700000e+02 2.400000e+02
550 0.000000e+00 2.500000e+02
551 2.000000e+01 2.500000e+02
552 3.000000e+01 2.500000e+02
553 4.000000e+01 2.500000e+02
554 5.000000e+01 2.500000e+02
555 6.000000e+01 2.500000e+02
556 7.000000e+01 2.500000e+02
557 8.000000e+01 2.500000e+02
558 1.000000e+02 2.500000e+02
559 1.100000e+02 2.500000e+02
560 1.200000e+02 2.500000e+02
561 1.300000e+02 2.500000e+02
562 1.400000e+02 2.500000e+02
563 1.500000e+02 2.500000e+02
564 1.700000e+02 2.500000e+02
565 1.800000e+02 2.500000e+02
566 1.900000e+02 2.500000e+02
567 2.000000e+02 2.500000e+02
568 2.200000e+02 2.500000e+02
569 2.300000e+02 2.500000e+02
570 2.500000e+02 2.500000e+02
571 2.600000e+02 2.500000e+02
572 2.700000e+02 2.500000e+02
573 2.800000e+02 2.500000e+02
574 1.000000e+01 2.600000e+02
575 2.000000e+01 2.600000e+02
576 4.000000e+01 2.600000e+02
577 6.000000e+01 2.600000e+02
578 9.000000e+01 2.600000e+02
579 1.000000e+02 2.600000e+02
580 1.100000e+02 2.600000e+02
581 1.200000e+02 2.600000e+02
582 1.300000e+02 2.600000e+02
583 1.400000e+02 2.600000e+02
584 1.700000e+02 2.600000e+02
585 1.800000e+02 2.600000e+02
586 1.900000e+02 2.600000e+02
587 2.000000e+02 2.600000e+02
588 2.200000e+02 2.600000e+02
589 2.300000e+02 2.600000e+02
590 2.400000e+02 2.600000e+02
591 2.500000e+02 2.600000e+02
592 2.600000e+02 2.600000e+02
593 2.700000e+02 2.600000e+02
594 0.000000e+00 2.700000e+02
595 2.000000e+01 2.700000e+02
596 3.000000e+01 2.700000e+02
597 4.000000e+01 2.700000e+02
598 5.000000e+01 2.700000e+02
599 7.000000e+01 2.700000e+02
600 8.000000e+01 2.700000e+02
601 9.000000e+01 2.700000e+02
602 1.000000e+02 2.700000e+02
603 1.100000e+02 2.700000e+02
604 1.300000e+02 2.700000e+02
605 1.400000e+02 2.700000e+02
606 1.500000e+02 2.700000e+02
607 1.600000e+02 2.700000e+02
608 1.700000e+02 2.700000e+02
609 1.800000e+02 2.700000e+02
610 1.900000e+02 2.700000e+02
611 2.000000e+02 2.700000e+02
612 2.100000e+02 2.700000e+02
613 2.200000e+02 2.700000e+02
614 2.300000e+02 2.700000e+02
615 2.400000e+02 2.700000e+02
616 2.500000e+02 2.700000e+02
617 2.600000e+02 2.700000e+02
618 2.700000e+02 2.700000e+02
619 0.000000e+00 2.800000e+02
620 1.000000e+01 2.800000e+02
621 2.000000e+01 2.800000e+02
622 4.000000e+01 2.800000e+02
623 5.000000e+01 2.800000e+02
624 6.000000e+01 2.800000e+02
625 7.000000e+01 2.800000e+02
626 9.000000e+01 2.800000e+02
627 1.000000e+02 2.800000e+02
628 1.100000e+02 2.800000e+02
629 1.200000e+02 2.800000e+02
630 1.300000e+02 2.800000e+02
631 1.500000e+02 2.800000e+02
632 1.600000e+02 2.800000e+02
633 1.700000e+02 2.800000e+02
634 1.800000e+02 2.800000e+02
635 2.000000e+02 2.800000e+02
636 2.300000e+02 2.800000e+02
637 2.400000e+02 2.800000e+02
638 2.500000e+02 2.800000e+02
639 2.600000e+02 2.800000e+02
640 2.700000e+02 2.800000e+02
641 0.000000e+00 2.900000e+02
642 3.000000e+01 2.900000e+02
643 4.000000e+01 2.900000e+02
644 5.000000e+01 2.900000e+02
645 6.000000e+01 2.900000e+02
646 7.000000e+01 2.900000e+02
647 8.000000e+01 2.900000e+02
648 1.000000e+02 2.900000e+02
649 1.100000e+02 2.900000e+02
650 1.200000e+02 2.900000e+02
651 1.300000e+02 2.900000e+02
652 1.400000e+02 2.900000e+02
653 1.600000e+02 2.900000e+02
654 1.700000e+02 2.900000e+02
655 1.900000e+02 2.900000e+02
656 2.100000e+02 2.900000e+02
657 2.200000e+02 2.900000e+02
658 2.300000e+02 2.900000e+02
659 2.400000e+02 2.900000e+02
660 2.500000e+02 2.900000e+02
661 2.700000e+02 2.900000e+02
662 2.800000e+02 2.900000e+02
663 0.000000e+00 3.000000e+02
664 2.000000e+01 3.000000e+02
665 3.000000e+01 3.000000e+02
666 4.000000e+01 3.000000e+02
667 5.000000e+01 3.000000e+02
668 6.000000e+01 3.000000e+02
669 7.000000e+01 3.000000e+02
670 8.000000e+01 3.000000e+02
671 9.000000e+01 3.000000e+02
672 1.000000e+02 3.000000e+02
673 1.200000e+02 3.000000e+02
674 1.300000e+02 3.000000e+02
675 1.400000e+02 3.000000e+02
676 1.600000e+02 3.000000e+02
677 1.700000e+02 3.000000e+02
678 2.100000e+02 3.000000e+02
679 2.200000e+02 3.000000e+02
680 2.400000e+02 3.000000e+02
681 2.500000e+02 3.000000e+02
682 2.600000e+02 3.000000e+02
683 2.700000e+02 3.000000e+02
684 2.800000e+02 3.000000e+02
685 0.000000e+00 3.100000e+02
686 2.000000e+01 3.100000e+02
687 3.000000e+01 3.100000e+02
688 4.000000e+01 3.100000e+02
689 5.000000e+01 3.100000e+02
690 6.000000e+01 3.100000e+02
691 7.000000e+01 3.100000e+02
692 8.000000e+01 3.100000e+02
693 9.000000e+01 3.100000e+02
694 1.200000e+02 3.100000e+02
695 1.300000e+02 3.100000e+02
696 1.400000e+02 3.100000e+02
697 1.600000e+02 3.100000e+02
698 1.700000e+02 3.100000e+02
699 1.800000e+02 3.100000e+02
700 1.900000e+02 3.100000e+02
701 2.000000e+02 3.100000e+02
702 2.100000e+02 3.100000e+02
703 2.200000e+02 3.100000e+02
704 2.300000e+02 3.100000e+02
705 2.400000e+02 3.100000e+02
706 2.500000e+02 3.100000e+02
707 2.700000e+02 3.100000e+02
708 0.000000e+00 3.200000e+02
709 1.000000e+01 3.200000e+02
710 2.000000e+01 3.200000e+02
711 3.000000e+01 3.200000e+02
712 4.000000e+01 3.200000e+02
713 5.000000e+01 3.200000e+02
714 6.000000e+01 3.200000e+02
715 7.000000e+01 3.200000e+02
716 8.000000e+01 3.200000e+02
717 1.000000e+02 3.200000e+02
718 1.100000e+02 3.200000e+02
719 1.200000e+02 3.200000e+02
720 1.300000e+02 3.200000e+02
721 1.500000e+02 3.200000e+02
722 1.600000e+02 3.200000e+02
723 1.700000e+02 3.200000e+02
724 1.800000e+02 3.200000e+02
725 2.100000e+02 3.200000e+02
726 2.300000e+02 3.200000e+02
727 2.500000e+02 3.200000e+02
728 2.600000e+02 3.200000e+02
729 2.700000e+02 3.200000e+02
730 2.800000e+02 3.200000e+02
731 0.000000e+00 3.300000e+02
732 1.000000e+01 3.300000e+02
733 2.000000e+01 3.300000e+02
734 4.000000e+01 3.300000e+02
735 5.000000e+01 3.300000e+02
736 6.000000e+01 3.300000e+02
737 7.000000e+01 3.300000e+02
738 8.000000e+01 3.300000e+02
739 9.000000e+01 3.300000e+02
740 1.000000e+02 3.300000e+02
741 1.100000e+02 3.300000e+02
742 1.300000e+02 3.300000e+02
743 1.500000e+02 3.300000e+02
744 1.600000e+02 3.300000e+02
745 1.700000e+02 3.300000e+02
746 1.800000e+02 3.300000e+02
747 1.900000e+02 3.300000e+02
748 2.000000e+02 3.300000e+02
749 2.100000e+02 3.300000e+02
750 2.300000e+02 3.300000e+02
751 2.500000e+02 3.300000e+02
752 2.700000e+02 3.300000e+02
753 2.800000e+02 3.300000e+02
754 0.000000e+00 3.400000e+02
755 1.000000e+01 3.400000e+02
756 2.000000e+01 3.400000e+02
757 3.000000e+01 3.400000e+02
758 4.000000e+01 3.400000e+02
759 5.000000e+01 3.400000e+02
760 6.000000e+01 3.400000e+02
761 7.000000e+01 3.400000e+02
762 8.000000e+01 3.400000e+02
763 1.000000e+02 3.400000e+02
764 1.100000e+02 3.400000e+02
765 1.200000e+02 3.400000e+02
766 1.500000e+02 3.400000e+02
767 1.600000e+02 3.400000e+02
768 1.700000e+02 3.400000e+02
769 1.900000e+02 3.400000e+02
770 2.000000e+02 3.400000e+02
771 2.100000e+02 3.400000e+02
772 2.200000e+02 3.400000e+02
773 2.500000e+02 3.400000e+02
774 2.700000e+02 3.400000e+02
775 2.800000e+02 3.400000e+02
776 0.000000e+00 3.500000e+02
777 2.000000e+01 3.500000e+02
778 4.000000e+01 3.500000e+02
779 5.000000e+01 3.500000e+02
780 6.000000e+01 3.500000e+02
781 7.000000e+01 3.500000e+02
782 8.000000e+01 3.500000e+02
783 9.000000e+01 3.500000e+02
784 1.000000e+02 3.500000e+02
785 1.100000e+02 3.500000e+02
786 1.200000e+02 3.500000e+02
787 1.500000e+02 3.500000e+02
788 1.600000e+02 3.500000e+02
789 1.800000e+02 3.500000e+02
790 1.900000e+02 3.500000e+02
791 2.000000e+02 3.500000e+02
792 2.100000e+02 3.500000e+02
793 2.200000e+02 3.500000e+02
794 2.300000e+02 3.500000e+02
795 2.400000e+02 3.500000e+02
796 2.500000e+02 3.500000e+02
797 2.600000e+02 3.500000e+02
798 2.700000e+02 3.500000e+02
799 0.000000e+00 3.600000e+02
800 1.000000e+01 3.600000e+02
801 2.000000e+01 3.600000e+02
802 3.000000e+01 3.600000e+02
803 4.000000e+01 3.600000e+02
804 5.000000e+01 3.600000e+02
805 6.000000e+01 3.600000e+02
806 7.000000e+01 3.600000e+02
807 8.000000e+01 3.600000e+02
808 1.000000e+02 3.600000e+02
809 1.100000e+02 3.600000e+02
810 1.200000e+02 3.600000e+02
811 1.500000e+02 3.600000e+02
812 1.800000e+02 3.600000e+02
813 1.900000e+02 3.600000e+02
814 2.100000e+02 3.600000e+02
815 2.200000e+02 3.600000e+02
816 2.400000e+02 3.600000e+02
817 2.700000e+02 3.600000e+02
818 2.800000e+02 3.600000e+02
819 0.000000e+00 3.700000e+02
820 1.000000e+01 3.700000e+02
821 3.000000e+01 3.700000e+02
822 5.000000e+01 3.700000e+02
823 6.000000e+01 3.700000e+02
824 8.000000e+01 3.700000e+02
825 9.000000e+01 3.700000e+02
826 1.000000e+02 3.700000e+02
827 1.100000e+02 3.700000e+02
828 1.200000e+02 3.700000e+02
829 1.300000e+02 3.700000e+02
830 1.500000e+02 3.700000e+02
831 1.600000e+02 3.700000e+02
832 1.700000e+02 3.700000e+02
833 1.800000e+02 3.700000e+02
834 1.900000e+02 3.700000e+02
835 2.000000e+02 3.700000e+02
836 2.100000e+02 3.700000e+02
837 2.200000e+02 3.700000e+02
838 2.300000e+02 3.700000e+02
839 2.400000e+02 3.700000e+02
840 2.500000e+02 3.700000e+02
841 2.600000e+02 3.700000e+02
842 2.700000e+02 3.700000e+02
843 2.800000e+02 3.700000e+02
844 0.000000e+00 3.800000e+02
845 1.000000e+01 3.800000e+02
846 2.000000e+01 3.800000e+02
847 3.000000e+01 3.800000e+02
848 7.000000e+01 3.800000e+02
849 8.000000e+01 3.800000e+02
850 9.000000e+01 3.800000e+02
851 1.200000e+02 3.800000e+02
852 1.300000e+02 3.800000e+02
853 1.500000e+02 3.800000e+02
854 1.900000e+02 3.800000e+02
855 2.300000e+02 3.800000e+02
856 2.400000e+02 3.800000e+02
857 2.500000e+02 3.800000e+02
858 2.700000e+02 3.800000e+02
859 2.800000e+02 3.800000e+02
860 1.000000e+01 3.900000e+02
861 2.000000e+01 3.900000e+02
862 3.000000e+01 3.900000e+02
863 4.000000e+01 3.900000e+02
864 6.000000e+01 3.900000e+02
865 9.000000e+01 3.900000e+02
866 1.000000e+02 3.900000e+02
867 1.100000e+02 3.900000e+02
868 1.200000e+02 3.900000e+02
869 1.300000e+02 3.900000e+02
870 1.600000e+02 3.900000e+02
871 1.900000e+02 3.900000e+02
872 2.000000e+02 3.900000e+02
873 2.100000e+02 3.900000e+02
874 2.200000e+02 3.900000e+02
875 2.300000e+02 3.900000e+02
876 2.400000e+02 3.900000e+02
877 2.500000e+02 3.900000e+02
878 2.700000e+02 3.900000e+02
879 0.000000e+00 4.000000e+02
880 1.000000e+01 4.000000e+02
881 3.000000e+01 4.000000e+02
882 5.000000e+01 4.000000e+02
883 8.000000e+01 4.000000e+02
884 9.000000e+01 4.000000e+02
885 1.000000e+02 4.000000e+02
886 1.100000e+02 4.000000e+02
887 1.300000e+02 4.000000e+02
888 1.400000e+02 4.000000e+02
889 1.600000e+02 4.000000e+02
890 1.700000e+02 4.000000e+02
891 1.800000e+02 4.000000e+02
892 2.000000e+02 4.000000e+02
893 2.100000e+02 4.000000e+02
894 2.200000e+02 4.000000e+02
895 2.300000e+02 4.000000e+02
896 2.400000e+02 4.000000e+02
897 2.700000e+02 4.000000e+02
898 2.800000e+02 4.000000e+02
899 2.000000e+01 4.100000e+02
900 3.000000e+01 4.100000e+02
901 4.000000e+01 4.100000e+02
902 5.000000e+01 4.100000e+02
903 7.000000e+01 4.100000e+02
904 9.000000e+01 4.100000e+02
905 1.000000e+02 4.100000e+02
906 1.100000e+02 4.100000e+02
907 1.200000e+02 4.100000e+02
908 1.300000e+02 4.100000e+02
909 1.400000e+02 4.100000e+02
910 1.500000e+02 4.100000e+02
911 1.600000e+02 4.100000e+02
912 1.700000e+02 4.100000e+02
913 1.800000e+02 4.100000e+02
914 1.900000e+02 4.100000e+02
915 2.000000e+02 4.100000e+02
916 2.100000e+02 4.100000e+02
917 2.200000e+02 4.100000e+02
918 2.300000e+02 4.100000e+02
919 2.400000e+02 4.100000e+02
920 2.500000e+02 4.100000e+02
921 2.600000e+02 4.100000e+02
922 2.800000e+02 4.100000e+02
923 0.000000e+00 4.200000e+02
924 2.000000e+01 4.200000e+02
925 4.000000e+01 4.200000e+02
926 5.000000e+01 4.200000e+02
927 7.000000e+01 4.200000e+02
928 8.000000e+01 4.200000e+02
929 9.000000e+01 4.200000e+02
930 1.100000e+02 4.200000e+02
931 1.200000e+02 4.200000e+02
932 1.400000e+02 4.200000e+02
933 1.700000e+02 4.200000e+02
934 1.800000e+02 4.200000e+02
935 1.900000e+02 4.200000e+02
936 2.000000e+02 4.200000e+02
937 2.200000e+02 4.200000e+02
938 2.300000e+02 4.200000e+02
939 2.400000e+02 4.200000e+02
940 2.500000e+02 4.200000e+02
941 2.800000e+02 4.200000e+02
942 0.000000e+00 4.300000e+02
943 1.000000e+01 4.300000e+02
944 3.000000e+01 4.300000e+02
945 4.000000e+01 4.300000e+02
946 6.000000e+01 4.300000e+02
947 7.000000e+01 4.300000e+02
948 8.000000e+01 4.300000e+02
949 9.000000e+01 4.300000e+02
950 1.000000e+02 4.300000e+02
951 1.200000e+02 4.300000e+02
952 1.600000e+02 4.300000e+02
953 1.700000e+02 4.300000e+02
954 1.800000e+02 4.300000e+02
955 1.900000e+02 4.300000e+02
956 2.200000e+02 4.300000e+02
957 2.500000e+02 4.300000e+02
958 2.600000e+02 4.300000e+02
959 2.700000e+02 4.300000e+02
960 2.800000e+02 4.300000e+02
961 0.000000e+00 4.400000e+02
962 3.000000e+01 4.400000e+02
963 4.000000e+01 4.400000e+02
964 5.000000e+01 4.400000e+02
965 6.000000e+01 4.400000e+02
966 7.000000e+01 4.400000e+02
967 8.000000e+01 4.400000e+02
968 9.000000e+01 4.400000e+02
969 1.100000e+02 4.400000e+02
970 1.300000e+02 4.400000e+02
971 1.400000e+02 4.400000e+02
972 1.800000e+02 4.400000e+02
973 1.900000e+02 4.400000e+02
974 2.000000e+02 4.400000e+02
975 2.100000e+02 4.400000e+02
976 2.200000e+02 4.400000e+02
977 2.400000e+02 4.400000e+02
978 2.600000e+02 4.400000e+02
979 2.800000e+02 4.400000e+02
980 0.000000e+00 4.500000e+02
981 2.000000e+01 4.500000e+02
982 3.000000e+01 4.500000e+02
983 4.000000e+01 4.500000e+02
984 5.000000e+01 4.500000e+02
985 6.000000e+01 4.500000e+02
986 7.000000e+01 4.500000e+02
987 8.000000e+01 4.500000e+02
988 9.000000e+01 4.500000e+02
989 1.100000e+02 4.500000e+02
990 1.200000e+02 4.500000e+02
991 1.400000e+02 4.500000e+02
992 1.900000e+02 4.500000e+02
993 2.000000e+02 4.500000e+02
994 2.100000e+02 4.500000e+02
995 2.200000e+02 4.500000e+02
996 2.400000e+02 4.500000e+02
997 2.500000e+02 4.500000e+02
998 2.600000e+02 4.500000e+02
999 2.700000e+02 4.500000e+02
1000 2.800000e+02 4.500000e+02
EOF
